TCS_Benchmarks/redos_fix/corpus3_output_distinct_808_807_17_0.txt
(\S+)([0-9\-A-Z.a-z_]+)
(\S+)(@[0-9\-A-Z.a-z_]+\.)([0-9\-A-Z.a-z_]+)